CMD:
./solvers/bin/cadical --plain --no-reduce -t 1600 ./data/cnfs//6s428rb098/6s428rb098.28.cnf

c --- [ banner ] -------------------------------------------------------------
c 
c CaDiCaL SAT Solver
c Copyright (c) 2016-2024
c A. Biere, M. Fleury, N. Froleyks, K. Fazekas, F. Pollitt, T. Faller
c JKU Linz, University of Freiburg, TU Wien
c 
c Version 2.1.3 5296d3d2a9bf48c154ab2acb5e44625776d821bf
c g++ (Gentoo 12.3.1_p20230526 p2) 12.3.1 20230526 -Wall -Wextra -O3 -DNDEBUG
c Sat Aug 9 07:26:21 PDT 2025 Linux cedar2.int.cedar.computecanada.ca 5.14.0-362.24.2.el9_3.x86_64 x86_64
c 
c --- [ limit ] --------------------------------------------------------------
c 
c setting time limit to 1600 seconds real time (due to '-t 1600')
c 
c --- [ parsing input ] ------------------------------------------------------
c 
c reading DIMACS file from './data/cnfs//6s428rb098/6s428rb098.28.cnf'
c opening file to read './data/cnfs//6s428rb098/6s428rb098.28.cnf'
c found 'p cnf 767950 2134130' header
c parsed 2134130 clauses in 0.45 seconds process time
c 
c --- [ options ] ------------------------------------------------------------
c 
c   --compact=false                (different from default 'true')
c   --decompose=false              (different from default 'true')
c   --deduplicate=false            (different from default 'true')
c   --elim=false                   (different from default 'true')
c   --probe=false                  (different from default 'true')
c   --reduce=false                 (different from default 'true')
c   --subsume=false                (different from default 'true')
c   --ternary=false                (different from default 'true')
c   --transred=false               (different from default 'true')
c   --vivify=false                 (different from default 'true')
c 
c --- [ solving ] ------------------------------------------------------------
c 
c time measured in process time since initialization
c 
c  seconds   reductions  redundant   irredundant
c          MB    restarts       trail        variables
c           level   conflicts       glue           remaining
c 
c *  0.46 331  0 0   0    0    0  0% 0 2063872 709731 92%
c {  0.70 341  0 0   0    0    0  0% 0 2063872 709731 92%
c i  0.93 343 42 0  12   96   95 14% 2 2063872 709712 92%
c i  2.71 344 90 0 114  691  644 19% 3 2063872 709710 92%
c i  3.06 344 100 0 127  742  693 20% 3 2063872 709709 92%
c }  5.73 345 179 0 199 1000  939 25% 3 2063872 709709 92%
c [  5.73 345  0 0 199 1000  939  0% 0 2063872 709709 92%
c O  5.78 345 2227 0 199 1002  941 13% 2 2063872 709709 92%
c ]  8.64 346 6988 0 200 3000 2810 71% 10 2063872 709709 92%
c {  8.64 346 179 0 200 3000 2810 25% 3 2063872 709709 92%
c F  8.67 346 179 0 201 3003 2813 25% 3 2063872 709709 92%
c i 10.91 346 178 0 292 3633 3381 24% 3 2063872 709679 92%
c i 10.91 346 178 0 292 3634 3381 24% 3 2063872 709649 92%
c i 10.92 346 178 0 292 3635 3381 24% 3 2063872 709614 92%
c i 11.47 347 173 0 337 3822 3548 24% 3 2063872 709613 92%
c i 14.65 347 187 0 437 4379 4049 24% 4 2063872 709594 92%
c i 14.65 347 187 0 437 4380 4049 24% 4 2063872 709572 92%
c i 14.82 347 191 0 445 4441 4102 24% 4 2063872 709547 92%
c i 16.89 347 197 0 573 4975 4590 24% 4 2063872 709545 92%
c i 20.02 347 221 0 748 5824 5372 24% 4 2063872 709537 92%
c 
c  seconds    reductions  redundant   irredundant
c          MB     restarts       trail        variables
c            level   conflicts       glue           remaining
c 
c i 20.02 347 221 0 748 5825 5372 24% 4 2063872 709529 92%
c # 20.51 347 225 0 771 6004 5536 24% 4 2063872 709480 92%
c } 24.55 348 238 0 926 7002 6460 24% 4 2063872 709480 92%
c [ 24.55 348 6988 0 926 7002 6460 71% 10 2063872 709480 92%
c I 28.72 349 3364 0 928 10005 9229 60% 16 2063872 709480 92%
c ] 38.20 351 1820 0 931 15002 13927 56% 22 2063872 709480 92%
c { 38.20 351 238 0 931 15002 13927 24% 4 2063872 709480 92%
c B 38.29 351 239 0 931 15006 13931 24% 4 2063872 709480 92%
c i 45.91 351 238 0 1213 16984 15760 25% 4 2063872 709472 92%
c i 52.42 352 244 0 1491 19091 17665 24% 5 2063872 709425 92%
c W 61.07 353 259 0 1801 21007 19420 24% 5 1980330 709425 92%
c i 67.55 353 260 0 2042 23068 21295 24% 5 1980330 709424 92%
c i 67.55 353 260 0 2042 23071 21297 24% 5 1980330 709423 92%
c i 71.80 353 255 0 2198 24347 22445 24% 5 1980330 709422 92%
c i 78.34 353 259 0 2422 25689 23678 24% 5 1980330 709414 92%
c F 85.32 353 256 0 2715 28008 25790 24% 5 1980330 709414 92%
c i 92.63 353 264 0 3007 29554 27202 24% 5 1980330 709413 92%
c } 99.01 353 267 0 3231 31006 28546 25% 5 1980330 709413 92%
c [ 99.01 353 1820 0 3231 31006 28546 56% 22 1980330 709413 92%
c B 105.48 353 1397 0 3234 36009 33135 52% 22 1980330 709413 92%
c 
c  seconds      reductions     redundant    irredundant
c           MB      restarts          trail         variables
c             level      conflicts        glue            remaining
c 
c W 116.44 440 1242 0 3238 45012 41412 54% 23 1980296 709413 92%
c O 127.57 440 1072 0 3240 55013 50693 52% 31 1980296 709413 92%
c ] 135.83 440 1014 0 3245 63009 57992 53% 31 1980296 709413 92%
c { 135.83 440 267 0 3245 63009 57992 25% 5 1980296 709413 92%
... skipped 33 lines ...
c O 549.51 459 543 0 12496 231030 212390 53% 34 1980088 709339 92%
c B 568.22 459 574 0 12497 253031 233095 50% 36 1980088 709339 92%
c ] 570.04 459 582 0 12498 255011 234967 50% 36 1980088 709339 92%
c { 570.04 459 259 0 12498 255011 234967 25% 6 1980088 709339 92%
c i 596.32 459 255 0 13317 262561 241775 25% 6 1980088 709338 92%
c F 643.79 459 249 0 15215 276032 254053 25% 6 1980088 709338 92%
c i 677.43 459 247 0 16498 283610 260964 25% 6 1980088 709337 92%
c i 712.65 459 247 0 17579 290715 267385 25% 6 1980088 707890 92%
c 
c  seconds     reductions       redundant    irredundant
c           MB      restarts            trail        variables
c             level      conflicts          glue           remaining
c 
c i 729.80 459 250 0 18139 293884 270257 25% 6 1980088 707325 92%
c B 754.37 459 252 0 18908 300033 275873 25% 6 1980088 707325 92%
c i 761.18 459 249 0 19098 302266 277892 25% 6 1980088 707324 92%
c i 762.09 459 249 0 19099 302574 278159 25% 6 1980088 707323 92%
c i 772.09 459 248 0 19373 305256 280559 25% 6 1980088 707308 92%
c i 791.34 459 240 0 20009 313670 288043 25% 6 1980088 707307 92%
c i 814.05 459 239 0 20822 317959 292016 25% 6 1980088 707306 92%
c i 820.06 459 241 0 21055 319408 293335 25% 6 1980088 707296 92%
c W 853.72 497 242 0 22251 325034 298529 25% 7 1970235 707296 92%
c i 961.72 497 244 0 26208 348835 320369 25% 7 1970235 707295 92%
c i 966.21 497 243 0 26422 350043 321483 25% 7 1970235 707294 92%
c # 971.47 497 244 0 26624 351035 322410 25% 7 1970235 707294 92%
c i 992.27 497 243 0 27401 355720 326677 25% 7 1970235 707293 92%
c i 1039.27 497 240 0 29160 368042 337940 25% 7 1970235 707292 92%
c B 1073.02 497 238 0 30078 378038 347016 24% 7 1970235 707292 92%
c i 1096.63 497 240 0 30729 382243 350845 25% 7 1970235 707290 92%
c i 1143.59 497 242 0 32165 390928 358898 25% 7 1970235 707289 92%
c i 1143.59 497 242 0 32166 390929 358898 25% 7 1970235 707288 92%
c W 1195.80 503 232 0 33544 406039 372583 25% 7 1970210 707288 92%
c F 1329.54 503 239 0 38416 435040 399084 25% 7 1970210 707288 92%
c 
c   seconds     reductions       redundant    irredundant
c            MB      restarts            trail        variables
c              level      conflicts          glue           remaining
c 
c i 1386.00 503 233 0 40116 450943 413511 25% 7 1970210 707287 92%
c B 1448.71 503 233 0 42180 465041 426248 25% 7 1970210 707287 92%
c i 1476.87 503 232 0 43029 471912 432394 25% 7 1970210 707285 92%
c i 1492.87 503 227 0 43414 478267 437924 24% 7 1970210 707284 92%
c W 1575.06 512 227 0 45864 496045 454217 25% 7 1970197 707284 92%
c i 1586.72 512 229 0 46245 497951 455983 25% 7 1970197 707283 92%
c } 1589.83 512 230 0 46311 498957 456909 25% 7 1970197 707283 92%
c ? 1589.83 512 230 0 46311 498957 456909 25% 7 1970197 707283 92%
c 
c --- [ result ] -------------------------------------------------------------
c 
c UNKNOWN
c 
c --- [ run-time profiling ] -------------------------------------------------
c 
c process time taken by individual solving procedures
c (percentage relative to process time for solving)
c 
c      1589.38  100.00% search
c      1333.74   83.92% unstable
c       247.14   15.55% stable
c         8.25    0.52% walk
c         0.45    0.03% parse
c         0.25    0.02% lucky
c         0.00    0.00% simplify
c   =================================
c      1589.38   99.97% solve
c 
c last line shows process time for solving
c (percentage relative to total process time)
c 
c --- [ statistics ] ---------------------------------------------------------
c 
c chronological:            278885        55.89 %  of conflicts
c conflicts:                498957       313.93    per second
c decisions:              18001155     11325.92    per second
c fixed:                     57409         7.48 %  of all variables
c learned:                  474109        95.02 %  per conflict
c learned_lits:           29669979       100.00 %  learned literals
c minimized:                     0         0.00 %  learned literals
c shrunken:                7769636        26.19 %  learned literals
c minishrunken:            4362672        14.70 %  learned literals
c otfs:                       2714         0.54 %  of conflict
c propagations:        10201428189         6.42 M  per second
c rephased:                     31     16095.39    interval
c restarts:                  46311        10.77    interval
c stabilizing:                   4        34.06 %  of conflicts
c subsumed:                  17253         0.68 %  of all clauses
c strengthened:               2597         0.10 %  of all clauses
c walked:                        9     55439.67    interval
c 
c seconds are measured in process time for solving
c 
c --- [ resources ] ----------------------------------------------------------
c 
c total process time since initialization:      1589.83    seconds
c total real time since initialization:         1600.00    seconds
c maximum resident set size of process:          645.37    MB
c 
c --- [ shutting down ] ------------------------------------------------------
c 
c exit 0
